c File: data_files/evolved_graphs/g0119.col
c
c Auto generated graph
c
p edge 100 2228
e 1 4
e 1 6
e 1 7
e 1 8
e 1 9
e 1 11
e 1 12
e 1 13
e 1 14
e 1 15
e 1 17
e 1 18
e 1 19
e 1 21
e 1 22
e 1 23
e 1 24
e 1 25
e 1 26
e 1 29
e 1 30
e 1 31
e 1 32
e 1 33
e 1 34
e 1 35
e 1 36
e 1 37
e 1 38
e 1 39
e 1 40
e 1 42
e 1 43
e 1 44
e 1 45
e 1 47
e 1 50
e 1 51
e 1 52
e 1 53
e 1 55
e 1 56
e 1 57
e 1 58
e 1 59
e 1 60
e 1 61
e 1 62
e 1 63
e 1 64
e 1 65
e 1 66
e 1 67
e 1 68
e 1 69
e 1 70
e 1 71
e 1 72
e 1 73
e 1 74
e 1 75
e 1 76
e 1 81
e 1 84
e 1 85
e 1 86
e 1 87
e 1 88
e 1 89
e 1 90
e 1 91
e 1 92
e 1 93
e 1 94
e 1 95
e 1 96
e 1 97
e 1 98
e 1 99
e 1 100
e 2 3
e 2 4
e 2 5
e 2 6
e 2 7
e 2 8
e 2 10
e 2 11
e 2 13
e 2 14
e 2 15
e 2 16
e 2 17
e 2 19
e 2 20
e 2 21
e 2 22
e 2 23
e 2 24
e 2 25
e 2 26
e 2 30
e 2 31
e 2 32
e 2 33
e 2 34
e 2 35
e 2 36
e 2 37
e 2 39
e 2 40
e 2 41
e 2 43
e 2 44
e 2 46
e 2 47
e 2 48
e 2 49
e 2 50
e 2 51
e 2 52
e 2 53
e 2 54
e 2 55
e 2 56
e 2 57
e 2 58
e 2 59
e 2 60
e 2 61
e 2 62
e 2 63
e 2 64
e 2 65
e 2 66
e 2 67
e 2 68
e 2 69
e 2 70
e 2 71
e 2 72
e 2 73
e 2 74
e 2 75
e 2 76
e 2 80
e 2 81
e 2 82
e 2 84
e 2 85
e 2 86
e 2 87
e 2 88
e 2 89
e 2 90
e 2 91
e 2 92
e 2 93
e 2 94
e 2 95
e 2 96
e 2 97
e 2 98
e 2 99
e 2 100
e 3 5
e 3 6
e 3 7
e 3 10
e 3 11
e 3 12
e 3 13
e 3 14
e 3 15
e 3 16
e 3 17
e 3 19
e 3 20
e 3 21
e 3 22
e 3 23
e 3 24
e 3 25
e 3 26
e 3 30
e 3 31
e 3 32
e 3 33
e 3 34
e 3 35
e 3 37
e 3 38
e 3 39
e 3 40
e 3 41
e 3 42
e 3 43
e 3 45
e 3 46
e 3 47
e 3 48
e 3 49
e 3 51
e 3 52
e 3 53
e 3 54
e 3 55
e 3 56
e 3 57
e 3 58
e 3 59
e 3 60
e 3 63
e 3 64
e 3 65
e 3 66
e 3 67
e 3 68
e 3 69
e 3 70
e 3 71
e 3 72
e 3 73
e 3 74
e 3 75
e 3 76
e 3 77
e 3 78
e 3 84
e 3 85
e 3 86
e 3 87
e 3 88
e 3 89
e 3 90
e 3 91
e 3 92
e 3 93
e 3 94
e 3 96
e 3 97
e 3 98
e 3 99
e 3 100
e 4 5
e 4 6
e 4 7
e 4 8
e 4 9
e 4 10
e 4 11
e 4 12
e 4 14
e 4 17
e 4 18
e 4 19
e 4 20
e 4 21
e 4 22
e 4 23
e 4 25
e 4 26
e 4 30
e 4 31
e 4 32
e 4 33
e 4 34
e 4 35
e 4 36
e 4 37
e 4 38
e 4 42
e 4 43
e 4 44
e 4 45
e 4 47
e 4 49
e 4 50
e 4 51
e 4 52
e 4 53
e 4 54
e 4 55
e 4 56
e 4 57
e 4 58
e 4 60
e 4 61
e 4 62
e 4 63
e 4 64
e 4 65
e 4 66
e 4 67
e 4 68
e 4 69
e 4 70
e 4 71
e 4 72
e 4 73
e 4 74
e 4 75
e 4 76
e 4 77
e 4 78
e 4 80
e 4 84
e 4 85
e 4 86
e 4 87
e 4 88
e 4 89
e 4 90
e 4 91
e 4 92
e 4 93
e 4 94
e 4 96
e 4 97
e 4 98
e 4 99
e 4 100
e 5 12
e 5 13
e 5 15
e 5 17
e 5 18
e 5 19
e 5 20
e 5 21
e 5 22
e 5 23
e 5 24
e 5 25
e 5 26
e 5 28
e 5 31
e 5 32
e 5 33
e 5 34
e 5 35
e 5 36
e 5 37
e 5 40
e 5 41
e 5 42
e 5 44
e 5 45
e 5 46
e 5 47
e 5 48
e 5 50
e 5 51
e 5 52
e 5 53
e 5 55
e 5 56
e 5 57
e 5 58
e 5 59
e 5 65
e 5 66
e 5 67
e 5 68
e 5 69
e 5 70
e 5 71
e 5 72
e 5 73
e 5 74
e 5 75
e 5 76
e 5 78
e 5 85
e 5 87
e 5 88
e 5 89
e 5 90
e 5 91
e 5 92
e 5 93
e 5 94
e 5 95
e 5 96
e 5 97
e 5 98
e 5 99
e 5 100
e 6 8
e 6 9
e 6 10
e 6 11
e 6 12
e 6 13
e 6 14
e 6 15
e 6 16
e 6 17
e 6 18
e 6 19
e 6 20
e 6 21
e 6 22
e 6 23
e 6 24
e 6 25
e 6 26
e 6 27
e 6 28
e 6 29
e 6 30
e 6 31
e 6 32
e 6 33
e 6 34
e 6 35
e 6 36
e 6 37
e 6 38
e 6 39
e 6 40
e 6 41
e 6 42
e 6 43
e 6 45
e 6 47
e 6 49
e 6 50
e 6 51
e 6 52
e 6 54
e 6 55
e 6 56
e 6 57
e 6 58
e 6 59
e 6 65
e 6 67
e 6 69
e 6 71
e 6 72
e 6 74
e 6 81
e 6 82
e 6 83
e 6 84
e 6 85
e 6 87
e 6 88
e 6 89
e 6 90
e 6 91
e 6 92
e 6 93
e 6 94
e 6 95
e 6 96
e 6 97
e 6 98
e 6 99
e 6 100
e 7 8
e 7 9
e 7 10
e 7 11
e 7 12
e 7 13
e 7 17
e 7 18
e 7 19
e 7 20
e 7 21
e 7 22
e 7 24
e 7 25
e 7 26
e 7 28
e 7 29
e 7 30
e 7 31
e 7 32
e 7 33
e 7 34
e 7 35
e 7 36
e 7 38
e 7 39
e 7 40
e 7 41
e 7 42
e 7 43
e 7 45
e 7 46
e 7 47
e 7 49
e 7 51
e 7 52
e 7 53
e 7 54
e 7 55
e 7 56
e 7 57
e 7 58
e 7 59
e 7 65
e 7 66
e 7 67
e 7 68
e 7 70
e 7 71
e 7 74
e 7 83
e 7 84
e 7 85
e 7 87
e 7 88
e 7 89
e 7 91
e 7 92
e 7 93
e 7 95
e 7 96
e 7 97
e 7 98
e 7 100
e 8 9
e 8 11
e 8 12
e 8 13
e 8 14
e 8 19
e 8 21
e 8 23
e 8 28
e 8 29
e 8 30
e 8 31
e 8 32
e 8 34
e 8 35
e 8 36
e 8 39
e 8 40
e 8 41
e 8 42
e 8 43
e 8 45
e 8 46
e 8 48
e 8 49
e 8 50
e 8 51
e 8 52
e 8 53
e 8 54
e 8 56
e 8 57
e 8 58
e 8 59
e 8 65
e 8 68
e 8 69
e 8 70
e 8 71
e 8 72
e 8 73
e 8 74
e 8 76
e 8 77
e 8 79
e 8 84
e 8 85
e 8 87
e 8 92
e 8 93
e 8 94
e 8 96
e 8 97
e 8 98
e 9 12
e 9 13
e 9 14
e 9 15
e 9 16
e 9 17
e 9 18
e 9 20
e 9 21
e 9 22
e 9 26
e 9 29
e 9 30
e 9 33
e 9 35
e 9 36
e 9 39
e 9 40
e 9 41
e 9 43
e 9 45
e 9 46
e 9 47
e 9 48
e 9 50
e 9 51
e 9 52
e 9 53
e 9 54
e 9 55
e 9 56
e 9 57
e 9 58
e 9 59
e 9 65
e 9 66
e 9 67
e 9 68
e 9 70
e 9 71
e 9 72
e 9 73
e 9 74
e 9 77
e 9 78
e 9 80
e 9 81
e 9 82
e 9 84
e 9 85
e 9 87
e 9 88
e 9 92
e 9 93
e 9 94
e 9 96
e 9 97
e 9 98
e 9 99
e 9 100
e 10 12
e 10 13
e 10 14
e 10 16
e 10 18
e 10 19
e 10 20
e 10 21
e 10 22
e 10 29
e 10 33
e 10 34
e 10 38
e 10 39
e 10 43
e 10 44
e 10 45
e 10 47
e 10 48
e 10 49
e 10 50
e 10 51
e 10 52
e 10 53
e 10 54
e 10 55
e 10 57
e 10 58
e 10 59
e 10 65
e 10 66
e 10 67
e 10 69
e 10 71
e 10 72
e 10 73
e 10 75
e 10 77
e 10 79
e 10 80
e 10 81
e 10 82
e 10 83
e 10 84
e 10 85
e 10 88
e 10 89
e 10 90
e 10 91
e 10 92
e 10 93
e 10 94
e 10 95
e 10 96
e 10 98
e 10 99
e 10 100
e 11 12
e 11 13
e 11 14
e 11 15
e 11 16
e 11 17
e 11 18
e 11 19
e 11 20
e 11 21
e 11 22
e 11 29
e 11 31
e 11 33
e 11 35
e 11 37
e 11 38
e 11 39
e 11 40
e 11 41
e 11 42
e 11 43
e 11 44
e 11 45
e 11 46
e 11 47
e 11 48
e 11 49
e 11 50
e 11 51
e 11 53
e 11 54
e 11 55
e 11 56
e 11 57
e 11 58
e 11 66
e 11 67
e 11 68
e 11 69
e 11 70
e 11 71
e 11 72
e 11 73
e 11 74
e 11 77
e 11 78
e 11 79
e 11 81
e 11 82
e 11 83
e 11 84
e 11 85
e 11 87
e 11 88
e 11 89
e 11 90
e 11 91
e 11 92
e 11 93
e 11 94
e 11 95
e 11 96
e 11 97
e 11 98
e 11 100
e 12 23
e 12 24
e 12 25
e 12 29
e 12 34
e 12 35
e 12 36
e 12 38
e 12 39
e 12 40
e 12 42
e 12 43
e 12 44
e 12 45
e 12 46
e 12 47
e 12 48
e 12 49
e 12 50
e 12 51
e 12 52
e 12 53
e 12 54
e 12 55
e 12 57
e 12 58
e 12 59
e 12 61
e 12 65
e 12 66
e 12 67
e 12 68
e 12 69
e 12 70
e 12 71
e 12 72
e 12 73
e 12 74
e 12 75
e 12 76
e 12 78
e 12 79
e 12 80
e 12 83
e 12 85
e 12 87
e 12 89
e 12 90
e 12 92
e 12 93
e 12 95
e 12 97
e 13 23
e 13 24
e 13 25
e 13 29
e 13 30
e 13 31
e 13 32
e 13 33
e 13 34
e 13 36
e 13 39
e 13 40
e 13 41
e 13 43
e 13 44
e 13 45
e 13 47
e 13 49
e 13 50
e 13 51
e 13 52
e 13 53
e 13 54
e 13 55
e 13 56
e 13 57
e 13 58
e 13 59
e 13 61
e 13 65
e 13 66
e 13 67
e 13 68
e 13 69
e 13 70
e 13 71
e 13 72
e 13 73
e 13 74
e 13 75
e 13 76
e 13 77
e 13 78
e 13 79
e 13 80
e 13 81
e 13 82
e 13 83
e 13 84
e 13 85
e 13 86
e 13 87
e 13 88
e 13 89
e 13 90
e 13 92
e 13 93
e 13 94
e 13 95
e 13 96
e 13 97
e 13 98
e 13 99
e 13 100
e 14 17
e 14 24
e 14 31
e 14 34
e 14 35
e 14 36
e 14 39
e 14 40
e 14 41
e 14 42
e 14 43
e 14 44
e 14 45
e 14 46
e 14 47
e 14 48
e 14 49
e 14 50
e 14 51
e 14 52
e 14 53
e 14 54
e 14 55
e 14 56
e 14 57
e 14 58
e 14 59
e 14 60
e 14 63
e 14 64
e 14 65
e 14 66
e 14 67
e 14 68
e 14 69
e 14 70
e 14 71
e 14 72
e 14 73
e 14 74
e 14 75
e 14 76
e 14 77
e 14 78
e 14 84
e 14 85
e 14 86
e 14 87
e 14 88
e 14 89
e 14 90
e 14 91
e 14 92
e 14 93
e 14 94
e 14 95
e 14 96
e 14 97
e 14 98
e 14 99
e 14 100
e 15 23
e 15 29
e 15 30
e 15 32
e 15 33
e 15 34
e 15 38
e 15 39
e 15 40
e 15 41
e 15 42
e 15 43
e 15 44
e 15 45
e 15 46
e 15 47
e 15 48
e 15 49
e 15 50
e 15 51
e 15 52
e 15 53
e 15 54
e 15 55
e 15 56
e 15 57
e 15 59
e 15 60
e 15 63
e 15 65
e 15 66
e 15 67
e 15 68
e 15 70
e 15 71
e 15 72
e 15 73
e 15 74
e 15 76
e 15 77
e 15 78
e 15 94
e 15 95
e 15 97
e 15 98
e 15 99
e 15 100
e 16 30
e 16 31
e 16 32
e 16 33
e 16 34
e 16 38
e 16 39
e 16 40
e 16 41
e 16 42
e 16 43
e 16 44
e 16 45
e 16 46
e 16 47
e 16 48
e 16 49
e 16 50
e 16 51
e 16 52
e 16 53
e 16 54
e 16 55
e 16 56
e 16 58
e 16 59
e 16 60
e 16 63
e 16 64
e 16 65
e 16 66
e 16 67
e 16 68
e 16 69
e 16 70
e 16 71
e 16 72
e 16 73
e 16 74
e 16 75
e 16 77
e 16 78
e 16 95
e 16 96
e 16 97
e 16 98
e 16 99
e 16 100
e 17 24
e 17 32
e 17 33
e 17 34
e 17 37
e 17 39
e 17 40
e 17 41
e 17 42
e 17 58
e 17 59
e 17 60
e 17 61
e 17 62
e 17 63
e 17 64
e 17 65
e 17 67
e 17 68
e 17 69
e 17 70
e 17 71
e 17 72
e 17 74
e 17 75
e 17 76
e 17 77
e 17 78
e 17 95
e 17 96
e 17 97
e 17 98
e 17 99
e 17 100
e 18 30
e 18 34
e 18 35
e 18 36
e 18 39
e 18 40
e 18 41
e 18 42
e 18 58
e 18 59
e 18 60
e 18 61
e 18 62
e 18 63
e 18 64
e 18 65
e 18 66
e 18 67
e 18 68
e 18 70
e 18 71
e 18 72
e 18 73
e 18 74
e 18 75
e 18 76
e 18 77
e 18 78
e 18 79
e 18 80
e 18 82
e 18 83
e 18 86
e 18 87
e 18 88
e 18 89
e 18 90
e 18 92
e 18 94
e 18 95
e 18 96
e 18 97
e 18 99
e 18 100
e 19 28
e 19 29
e 19 31
e 19 32
e 19 33
e 19 35
e 19 38
e 19 39
e 19 40
e 19 41
e 19 42
e 19 43
e 19 49
e 19 50
e 19 51
e 19 54
e 19 55
e 19 58
e 19 59
e 19 60
e 19 61
e 19 62
e 19 63
e 19 64
e 19 65
e 19 73
e 19 74
e 19 75
e 19 76
e 19 77
e 19 78
e 19 79
e 19 80
e 19 81
e 19 82
e 19 97
e 19 98
e 19 100
e 20 23
e 20 24
e 20 28
e 20 29
e 20 30
e 20 33
e 20 36
e 20 38
e 20 39
e 20 40
e 20 41
e 20 48
e 20 51
e 20 53
e 20 55
e 20 56
e 20 57
e 20 60
e 20 62
e 20 82
e 20 88
e 20 89
e 20 91
e 20 92
e 20 93
e 20 94
e 20 95
e 20 97
e 20 99
e 20 100
e 21 25
e 21 29
e 21 30
e 21 31
e 21 32
e 21 35
e 21 36
e 21 37
e 21 39
e 21 40
e 21 41
e 21 48
e 21 51
e 21 52
e 21 54
e 21 55
e 21 56
e 21 57
e 21 58
e 21 59
e 21 60
e 21 61
e 21 62
e 21 85
e 21 86
e 21 87
e 21 88
e 21 89
e 21 90
e 21 91
e 21 93
e 21 94
e 21 95
e 21 96
e 21 97
e 21 98
e 21 99
e 22 23
e 22 25
e 22 28
e 22 30
e 22 31
e 22 33
e 22 35
e 22 36
e 22 40
e 22 41
e 22 49
e 22 50
e 22 51
e 22 52
e 22 54
e 22 55
e 22 57
e 22 58
e 22 59
e 22 60
e 22 61
e 22 84
e 22 87
e 22 88
e 22 89
e 22 90
e 22 91
e 22 92
e 22 94
e 22 95
e 22 97
e 22 98
e 22 99
e 22 100
e 23 24
e 23 32
e 23 33
e 23 34
e 23 36
e 23 39
e 23 40
e 23 41
e 23 47
e 23 48
e 23 83
e 23 84
e 23 88
e 23 91
e 23 92
e 23 93
e 23 96
e 23 97
e 23 98
e 23 99
e 23 100
e 24 30
e 24 35
e 24 38
e 24 39
e 24 40
e 24 41
e 24 47
e 24 48
e 24 64
e 24 83
e 24 85
e 24 86
e 24 87
e 24 88
e 24 90
e 24 91
e 24 94
e 24 95
e 24 96
e 24 97
e 24 98
e 24 99
e 24 100
e 25 38
e 25 39
e 25 40
e 25 41
e 25 47
e 25 48
e 25 84
e 25 85
e 25 86
e 25 87
e 25 88
e 25 89
e 25 91
e 25 92
e 25 93
e 25 94
e 25 95
e 25 97
e 25 98
e 25 99
e 25 100
e 26 39
e 26 40
e 26 45
e 26 47
e 26 48
e 26 61
e 26 64
e 26 84
e 26 85
e 26 86
e 26 87
e 26 88
e 26 89
e 26 90
e 26 91
e 26 93
e 26 94
e 26 95
e 26 96
e 26 97
e 26 99
e 27 40
e 27 41
e 27 47
e 27 48
e 27 83
e 27 84
e 27 85
e 27 86
e 27 87
e 27 88
e 27 90
e 27 92
e 27 93
e 27 94
e 27 95
e 27 96
e 27 97
e 27 98
e 27 99
e 27 100
e 28 34
e 28 39
e 28 40
e 28 41
e 28 47
e 28 48
e 28 63
e 28 83
e 28 84
e 28 85
e 28 86
e 28 87
e 28 88
e 28 89
e 28 90
e 28 91
e 28 92
e 28 93
e 28 95
e 28 96
e 28 97
e 28 100
e 29 39
e 29 40
e 29 41
e 29 47
e 29 48
e 29 83
e 29 86
e 29 87
e 29 88
e 29 89
e 29 90
e 29 91
e 29 92
e 29 94
e 29 95
e 29 96
e 29 97
e 29 98
e 29 100
e 30 34
e 30 36
e 30 47
e 30 48
e 30 83
e 30 85
e 30 86
e 30 87
e 30 89
e 30 90
e 30 91
e 30 92
e 30 94
e 30 95
e 30 96
e 30 97
e 30 98
e 30 99
e 31 47
e 31 48
e 31 67
e 31 83
e 31 84
e 31 85
e 31 86
e 31 87
e 31 88
e 31 89
e 31 90
e 31 91
e 31 92
e 31 93
e 31 94
e 31 95
e 31 96
e 31 97
e 31 98
e 31 99
e 31 100
e 32 47
e 32 48
e 32 58
e 32 83
e 32 84
e 32 85
e 32 87
e 32 88
e 32 90
e 32 91
e 32 92
e 32 93
e 32 94
e 32 95
e 32 96
e 32 97
e 32 98
e 32 99
e 32 100
e 33 42
e 33 43
e 33 44
e 33 45
e 33 47
e 33 48
e 33 83
e 33 84
e 33 85
e 33 86
e 33 88
e 33 89
e 33 90
e 33 91
e 33 92
e 33 96
e 33 97
e 33 98
e 33 99
e 33 100
e 34 42
e 34 43
e 34 44
e 34 45
e 34 46
e 34 47
e 34 48
e 34 83
e 34 85
e 34 87
e 34 88
e 34 91
e 34 92
e 34 94
e 34 95
e 34 96
e 34 97
e 34 98
e 34 99
e 34 100
e 35 42
e 35 43
e 35 44
e 35 45
e 35 46
e 35 47
e 35 48
e 35 83
e 35 84
e 35 86
e 35 87
e 35 88
e 35 89
e 35 90
e 35 91
e 35 92
e 35 93
e 35 94
e 35 95
e 35 96
e 35 97
e 35 98
e 35 99
e 35 100
e 36 42
e 36 43
e 36 44
e 36 45
e 36 46
e 36 47
e 36 48
e 36 84
e 36 85
e 36 86
e 36 87
e 36 88
e 36 89
e 36 90
e 36 91
e 36 92
e 36 93
e 36 95
e 36 96
e 36 97
e 36 98
e 36 99
e 36 100
e 37 42
e 37 43
e 37 44
e 37 45
e 37 46
e 37 47
e 37 48
e 37 83
e 37 85
e 37 87
e 37 88
e 37 89
e 37 90
e 37 91
e 37 92
e 37 93
e 37 94
e 37 96
e 37 97
e 37 98
e 37 99
e 37 100
e 38 41
e 38 42
e 38 43
e 38 44
e 38 45
e 38 46
e 38 47
e 38 84
e 38 87
e 38 88
e 38 89
e 38 90
e 38 91
e 38 92
e 38 93
e 38 94
e 38 96
e 38 97
e 38 98
e 38 99
e 38 100
e 39 42
e 39 44
e 39 46
e 39 47
e 39 48
e 39 83
e 39 84
e 39 85
e 39 86
e 39 87
e 39 88
e 39 89
e 39 90
e 39 91
e 39 92
e 39 93
e 39 94
e 39 95
e 39 96
e 39 97
e 39 98
e 39 100
e 40 42
e 40 43
e 40 44
e 40 45
e 40 46
e 40 47
e 40 48
e 40 83
e 40 84
e 40 85
e 40 86
e 40 87
e 40 88
e 40 89
e 40 90
e 40 91
e 40 92
e 40 93
e 40 95
e 40 97
e 40 98
e 40 99
e 40 100
e 41 42
e 41 43
e 41 44
e 41 45
e 41 46
e 41 47
e 41 48
e 41 63
e 41 64
e 41 83
e 41 85
e 41 87
e 41 88
e 41 89
e 41 90
e 41 91
e 41 92
e 41 93
e 41 94
e 41 95
e 41 96
e 41 97
e 41 98
e 41 99
e 41 100
e 42 47
e 42 48
e 42 49
e 42 52
e 42 53
e 42 54
e 42 55
e 42 56
e 42 57
e 42 58
e 42 60
e 42 63
e 42 67
e 42 68
e 42 69
e 42 70
e 42 71
e 42 72
e 42 73
e 42 74
e 42 75
e 42 77
e 42 87
e 42 90
e 42 91
e 42 92
e 42 93
e 42 94
e 42 95
e 42 96
e 42 97
e 42 98
e 43 47
e 43 49
e 43 50
e 43 51
e 43 52
e 43 53
e 43 54
e 43 55
e 43 56
e 43 57
e 43 58
e 43 59
e 43 60
e 43 61
e 43 62
e 43 63
e 43 65
e 43 66
e 43 67
e 43 68
e 43 69
e 43 70
e 43 72
e 43 73
e 43 74
e 43 75
e 43 76
e 43 77
e 43 88
e 43 90
e 43 91
e 43 92
e 43 93
e 43 94
e 43 97
e 43 98
e 44 52
e 44 59
e 44 60
e 44 62
e 44 63
e 44 76
e 44 77
e 44 78
e 44 79
e 44 80
e 44 81
e 44 82
e 44 83
e 44 84
e 44 87
e 44 90
e 44 91
e 44 92
e 44 93
e 44 96
e 44 97
e 44 98
e 45 59
e 45 61
e 45 63
e 45 64
e 45 77
e 45 78
e 45 79
e 45 80
e 45 82
e 45 84
e 45 85
e 45 87
e 45 88
e 45 89
e 45 90
e 45 91
e 45 92
e 45 93
e 45 96
e 45 97
e 45 98
e 46 52
e 46 54
e 46 66
e 46 75
e 46 78
e 46 79
e 46 82
e 46 83
e 46 84
e 46 90
e 46 91
e 46 96
e 46 97
e 46 98
e 47 48
e 47 55
e 47 56
e 47 65
e 47 73
e 47 78
e 47 79
e 47 80
e 47 81
e 47 82
e 47 83
e 47 90
e 47 91
e 47 95
e 47 96
e 47 97
e 47 98
e 48 62
e 48 71
e 48 78
e 48 79
e 48 81
e 48 82
e 48 83
e 48 90
e 48 91
e 48 96
e 48 97
e 48 98
e 48 100
e 49 50
e 49 53
e 49 57
e 49 69
e 49 73
e 49 75
e 49 80
e 49 81
e 49 82
e 49 83
e 49 84
e 49 95
e 49 96
e 49 97
e 49 99
e 49 100
e 50 54
e 50 58
e 50 70
e 50 73
e 50 78
e 50 79
e 50 80
e 50 81
e 50 82
e 50 83
e 50 84
e 50 87
e 50 89
e 50 94
e 50 97
e 50 98
e 50 99
e 50 100
e 51 61
e 51 65
e 51 66
e 51 67
e 51 70
e 51 71
e 51 78
e 51 79
e 51 80
e 51 81
e 51 83
e 51 84
e 51 85
e 51 86
e 51 88
e 51 89
e 51 90
e 51 91
e 51 92
e 51 94
e 51 95
e 51 96
e 51 97
e 51 98
e 51 99
e 51 100
e 52 57
e 52 61
e 52 62
e 52 63
e 52 64
e 52 65
e 52 66
e 52 67
e 52 70
e 52 71
e 52 74
e 52 76
e 52 79
e 52 80
e 52 81
e 52 82
e 52 83
e 52 84
e 52 85
e 52 88
e 52 89
e 52 91
e 52 92
e 52 93
e 52 94
e 52 95
e 52 96
e 52 97
e 52 98
e 52 99
e 52 100
e 53 88
e 53 89
e 53 90
e 53 95
e 53 96
e 53 97
e 53 98
e 53 100
e 54 88
e 54 89
e 54 95
e 54 96
e 54 97
e 54 99
e 54 100
e 55 57
e 55 88
e 55 89
e 55 95
e 55 96
e 55 97
e 55 98
e 56 57
e 56 88
e 56 89
e 56 90
e 56 95
e 56 96
e 56 97
e 56 98
e 56 99
e 56 100
e 57 87
e 57 88
e 57 89
e 57 95
e 57 96
e 57 97
e 57 98
e 57 99
e 58 76
e 58 87
e 58 88
e 58 89
e 58 90
e 58 91
e 58 95
e 58 96
e 58 97
e 58 98
e 58 99
e 58 100
e 59 63
e 59 67
e 59 87
e 59 88
e 59 89
e 59 90
e 59 95
e 59 97
e 59 98
e 59 100
e 60 80
e 60 87
e 60 88
e 60 89
e 60 91
e 60 95
e 60 96
e 60 98
e 60 100
e 61 63
e 61 87
e 61 88
e 61 89
e 61 95
e 61 96
e 61 97
e 61 98
e 61 100
e 62 87
e 62 88
e 62 89
e 62 95
e 62 96
e 62 98
e 62 99
e 63 87
e 63 88
e 63 89
e 63 91
e 63 95
e 63 96
e 63 97
e 63 99
e 63 100
e 64 87
e 64 88
e 64 89
e 64 90
e 64 91
e 64 95
e 64 96
e 64 97
e 64 98
e 64 99
e 64 100
e 65 82
e 65 87
e 65 88
e 65 89
e 65 90
e 65 91
e 65 95
e 65 96
e 65 97
e 65 99
e 65 100
e 66 81
e 66 85
e 66 89
e 66 90
e 66 91
e 66 95
e 66 96
e 66 99
e 66 100
e 67 71
e 67 88
e 67 89
e 67 90
e 67 91
e 67 95
e 67 96
e 67 97
e 67 98
e 67 99
e 67 100
e 68 88
e 68 89
e 68 91
e 68 95
e 68 96
e 68 97
e 68 98
e 68 99
e 68 100
e 69 87
e 69 88
e 69 89
e 69 90
e 69 98
e 69 100
e 70 77
e 70 78
e 70 85
e 70 88
e 70 90
e 70 91
e 70 95
e 70 96
e 70 97
e 70 99
e 70 100
e 71 87
e 71 88
e 71 89
e 71 90
e 71 91
e 71 95
e 71 96
e 71 99
e 71 100
e 72 88
e 72 89
e 72 90
e 72 97
e 72 98
e 72 99
e 73 85
e 73 87
e 73 88
e 73 89
e 73 90
e 73 91
e 73 95
e 73 96
e 73 97
e 73 98
e 73 99
e 73 100
e 74 85
e 74 88
e 74 91
e 74 95
e 74 96
e 74 97
e 74 98
e 74 100
e 75 83
e 75 86
e 75 87
e 75 88
e 75 89
e 75 90
e 75 91
e 75 95
e 76 87
e 76 89
e 76 90
e 76 91
e 76 95
e 76 100
e 77 87
e 77 88
e 77 89
e 77 90
e 77 91
e 77 94
e 77 97
e 78 84
e 78 87
e 78 88
e 78 89
e 78 90
e 78 91
e 78 94
e 78 100
e 79 88
e 79 90
e 79 91
e 79 94
e 79 96
e 79 99
e 80 88
e 80 89
e 80 91
e 80 94
e 80 95
e 80 97
e 81 86
e 81 87
e 81 89
e 81 90
e 81 91
e 81 94
e 81 95
e 81 98
e 82 87
e 82 88
e 82 89
e 82 90
e 82 91
e 82 94
e 82 95
e 82 99
e 83 87
e 83 89
e 83 90
e 83 98
e 84 87
e 84 88
e 84 89
e 84 90
e 84 91
e 84 100
e 85 87
e 85 88
e 85 89
e 85 90
e 85 96
e 85 99
e 86 88
e 86 89
e 86 90
e 86 91
e 86 98
e 87 88
e 87 89
e 87 91
e 87 94
e 87 95
e 87 96
e 87 98
e 87 100
e 88 90
e 88 91
e 88 95
e 88 98
e 88 100
e 89 90
e 89 91
e 89 96
e 89 97
e 89 98
e 90 94
e 90 95
e 90 96
e 90 97
e 90 98
e 90 99
e 90 100
e 91 94
e 91 95
e 91 96
e 91 97
e 91 98
e 91 99
e 91 100
e 92 94
e 92 95
e 92 96
e 92 97
e 92 98
e 92 100
e 93 94
e 93 95
e 93 96
e 93 100
e 94 100
e 95 100
e 96 98
e 96 100
e 97 100
e 98 100
e 99 100
